id: 1752
name: fome13
group: mittelmann/fome
method: 2

Gurobi 7.0.2 (linux64, Matlab) logging started Mon Mar 26 10:25:35 2018


Gurobi 7.0.2 (linux64) logging started Mon Mar 26 10:25:35 2018

Optimize a model with 48568 rows, 97840 columns and 285056 nonzeros
Coefficient statistics:
  Matrix range     [8e-02, 2e+00]
  Objective range  [6e+02, 4e+07]
  Bounds range     [4e+00, 1e+02]
  RHS range        [1e+00, 1e+02]
Presolve removed 18936 rows and 27161 columns
Presolve time: 0.33s
Presolved: 29632 rows, 70679 columns, 247736 nonzeros

Ordering time: 0.59s

Barrier statistics:
 AA' NZ     : 2.943e+05
 Factor NZ  : 7.166e+06 (roughly 100 MBytes of memory)
 Factor Ops : 3.595e+09 (less than 1 second per iteration)
 Threads    : 4

                  Objective                Residual
Iter       Primal          Dual         Primal    Dual     Compl     Time
   0   1.13349594e+13 -1.08776586e+09  1.49e+04 0.00e+00  2.43e+08     1s
   1   6.53402090e+12 -2.56806488e+10  8.58e+03 1.88e+05  1.39e+08     1s
   2   1.05455728e+12 -3.57098257e+10  1.32e+03 8.19e+04  2.45e+07     1s
   3   2.62894031e+11 -2.14680486e+10  2.90e+02 1.49e+04  5.69e+06     2s
   4   2.68158245e+10 -8.05623739e+09  1.88e+01 3.09e+03  5.91e+05     2s
   5   4.79931845e+09 -4.36990102e+09  2.44e+00 1.79e+03  1.41e+05     2s
   6   3.48932260e+09 -1.67640811e+09  1.67e+00 6.87e+02  7.63e+04     2s
   7   1.76419690e+09 -1.08688516e+09  7.99e-01 4.06e+02  4.14e+04     2s
   8   9.66913251e+08 -5.40380978e+08  4.08e-01 1.73e+02  2.15e+04     2s
   9   4.26471198e+08 -2.02276769e+08  1.48e-01 6.53e+01  8.87e+03     2s
  10   2.12161715e+08 -4.81964729e+07  6.13e-02 2.23e+01  3.65e+03     2s
  11   1.32287207e+08  3.48790188e+07  2.06e-02 6.44e+00  1.36e+03     2s
  12   1.12984695e+08  6.94760906e+07  1.11e-02 1.91e+00  6.04e+02     2s
  13   9.73561667e+07  8.21634573e+07  2.90e-03 5.52e-01  2.10e+02     3s
  14   9.36805721e+07  8.75841979e+07  1.27e-03 1.06e-01  8.39e+01     3s
  15   9.07605582e+07  8.94928410e+07  9.22e-05 7.45e-09  1.73e+01     3s
  16   9.04243936e+07  8.98472193e+07  3.04e-05 7.45e-09  7.87e+00     3s
  17   9.02445714e+07  8.99850453e+07  8.93e-06 7.45e-09  3.54e+00     3s
  18   9.02427790e+07  8.99890059e+07  1.65e-05 7.45e-09  3.46e+00     3s
  19   9.01955730e+07  9.00568368e+07  8.38e-06 7.45e-09  1.89e+00     3s
  20   9.01586257e+07  9.00999331e+07  3.02e-06 7.45e-09  8.01e-01     3s
  21   9.01428964e+07  9.01186382e+07  5.48e-06 7.45e-09  3.31e-01     3s
  22   9.01349361e+07  9.01272493e+07  1.55e-06 1.49e-08  1.05e-01     4s
  23   9.01327127e+07  9.01298258e+07  1.56e-06 7.45e-09  3.92e-02     4s
  24   9.01318249e+07  9.01309121e+07  3.32e-06 1.12e-08  1.23e-02     4s
  25   9.01312846e+07  9.01311461e+07  3.06e-06 1.49e-08  1.86e-03     4s
  26   9.01312009e+07  9.01311655e+07  8.79e-07 7.45e-09  4.88e-04     4s
  27   9.01311713e+07  9.01311678e+07  4.91e-06 7.45e-09  4.95e-05     4s
  28   9.01311687e+07  9.01311683e+07  7.76e-06 7.45e-09  6.73e-06     4s
  29   9.01311685e+07  9.01311684e+07  2.79e-06 1.49e-08  2.13e-06     4s
  30   9.01311684e+07  9.01311684e+07  1.97e-06 1.12e-08  2.09e-07     4s
  31   9.01311684e+07  9.01311684e+07  1.25e-05 1.49e-08  1.36e-07     5s
  32   9.01311684e+07  9.01311684e+07  9.09e-06 1.49e-08  9.13e-08     5s
  33   9.01311684e+07  9.01311684e+07  4.51e-07 1.49e-08  1.50e-10     5s

Barrier solved model in 33 iterations and 4.95 seconds
Optimal objective 9.01311684e+07

Crossover log...

       0 DPushes remaining with DInf 2.2852306e-05                 6s

    1112 PPushes remaining with PInf 0.0000000e+00                 6s
       0 PPushes remaining with PInf 0.0000000e+00                 6s

  Push phase complete: Pinf 0.0000000e+00, Dinf 1.8089838e-05      6s

Iteration    Objective       Primal Inf.    Dual Inf.      Time
   13368    9.0131168e+07   0.000000e+00   0.000000e+00      6s
   13368    9.0131168e+07   0.000000e+00   0.000000e+00      6s

Solved in 13368 iterations and 6.18 seconds
Optimal objective  9.013116837e+07
status: OPTIMAL
